29 30
24
3 3 5 27
3 4 19 0
3 5 26 18
3 6 0 12
7 3 4 9
3 8 3 12
3 9 23 0
10 3 8 27
11 3 18 27
15 3 11 9
3 18 26 0
20 3 6 16
3 4 0 18
4 4 5 23
4 5 0 0
6 4 14 23
4 7 0 5
9 4 20 23
15 4 4 0
18 4 8 19
20 4 6 12
5 4 9 23
5 8 0 22
17 5 4 4
